50	3
25	200
20
30
10
40
20
20
20
10
20
30
40
20
10
10
20
20
20
20
40
10
10
40
30
10
20
30
20
10
10
10
20
10
10
30
20
40
10
30
10
30
20
10
20
10
10
10
10
10
10
30
40	50	0	240	0	0
25	85	49	191	10	1
22	75	30	168	10	1
22	85	95	152	10	2
20	80	69	193	10	3
20	85	40	189	10	1
18	75	60	159	10	1
15	75	54	133	10	2
15	80	67	144	10	2
10	35	57	154	10	1
10	40	106	161	10	1
8	40	33	152	10	3
8	45	32	148	10	1
5	35	53	191	10	1
5	45	35	194	10	1
2	40	39	163	10	3
0	40	41	141	10	1
0	45	51	189	10	1
44	5	73	130	10	1
42	10	40	148	10	2
42	15	94	179	10	3
40	5	45	161	10	2
40	15	64	149	10	2
38	5	45	164	10	3
38	15	51	194	10	3
35	5	45	183	10	2
95	30	90	169	10	3
95	35	57	172	10	3
92	30	55	174	10	2
90	35	52	174	10	1
88	30	52	147	10	1
88	35	50	172	10	2
87	30	61	178	10	3
85	25	51	178	10	2
85	35	83	168	10	1
67	85	57	185	10	2
65	85	43	186	10	1
65	82	95	182	10	3
62	80	38	141	10	3
60	80	36	193	10	2
60	85	61	138	10	3
58	75	49	164	10	1
55	80	33	180	10	3
55	85	100	185	10	2
55	82	35	142	10	3
20	82	37	192	10	2
18	80	71	184	10	1
2	45	38	191	10	1
42	5	50	184	10	2
42	12	99	138	10	1
72	35	83	178	10	2
84	76	0	240	5	4
25	49	0	240	5	4
95	33	0	240	5	4
0	0	0	
0	0	0	
0	1	0	
0	1	0	
0	0	0	
0	0	0	
0	1	0	
0	1	0	
0	0	0	
0	0	0	
0	1	0	
0	0	0	
0	0	0	
0	0	0	
0	1	0	
0	0	0	
0	0	0	
0	0	0	
0	1	0	
0	1	0	
0	1	0	
0	1	0	
0	1	0	
0	1	0	
0	1	0	
0	0	1	
0	0	1	
0	0	1	
0	0	0	
0	0	0	
0	0	1	
0	0	1	
0	0	1	
0	0	0	
1	0	0	
0	0	0	
1	0	0	
1	0	0	
1	0	0	
1	0	0	
0	0	0	
1	0	0	
1	0	0	
1	0	0	
0	1	0	
0	0	0	
0	0	0	
0	1	0	
0	0	0	
0	0	1	
